c t pwmc
c file mc2022_track4_097.cnf
p cnf 838 2330
c p show 8 9 10 11 12 13 14 15 16 17 18 19 20 21 22 23 127 128 129 130 131 132 133 134 135 136 137 138 139 140 141 142 230 231 232 233 234 235 236 237 238 239 240 241 242 243 244 245 333 334 335 336 337 338 339 340 341 342 343 344 345 346 347 348 436 437 438 439 440 441 442 443 444 445 446 447 448 449 450 451 539 540 541 542 543 544 545 546 547 548 549 550 551 552 553 554 642 643 644 645 646 647 648 649 650 651 652 653 654 655 656 657 0
7 0
109 0
-110 0
228 0
-229 0
331 0
-332 0
434 0
-435 0
537 0
-538 0
640 0
-641 0
838 0
-836 0
-837 0
636 637 605 627 626 625 624 612 621 629 622 631 630 620 628 623 633 634 632 610 613 614 619 606 617 618 615 616 635 607 611 608 609 0
212 225 211 217 216 210 209 223 222 221 220 219 218 214 199 224 207 205 204 203 200 202 208 201 206 215 213 198 193 197 194 196 195 0
305 328 322 323 312 325 326 315 314 317 301 321 302 303 327 320 319 318 316 324 311 299 313 296 298 300 297 307 306 310 304 308 309 0
85 106 78 94 95 98 97 93 92 91 90 89 96 104 103 102 86 80 99 105 100 101 84 87 77 83 81 79 88 76 82 75 74 0
522 534 502 532 514 533 507 518 517 531 530 529 528 527 526 519 520 504 515 510 512 516 524 513 511 508 509 505 503 525 506 521 523 0
403 431 424 427 425 423 426 428 429 414 430 415 416 401 411 399 407 412 410 413 409 422 421 420 419 418 417 400 405 404 402 406 408 0
827 831 830 828 829 0
823 826 825 824 822 0
820 819 821 818 817 0
815 816 814 813 812 0
810 811 808 807 809 0
805 806 804 803 802 0
162 -163 -12 0
-173 174 23 0
173 -174 -23 0
-173 -158 174 0
-263 247 262 0
263 9 -262 0
-263 -9 262 0
263 -247 -262 0
-264 263 248 0
-263 264 10 0
263 -264 -10 0
378 -377 21 0
-378 377 -21 0
378 -362 -377 0
378 -379 363 0
-378 22 379 0
41 9 -40 0
378 -379 -22 0
-378 -363 379 0
379 364 -380 0
-379 23 380 0
379 -23 -380 0
-379 -364 380 0
-172 173 22 0
-41 25 40 0
172 -173 -22 0
364 -23 425 0
-364 -23 -426 0
578 -577 15 0
577 -578 -15 0
-562 578 -577 0
-475 474 -15 0
475 -474 15 0
-475 474 459 0
-473 474 -458 0
473 -474 -14 0
-473 474 14 0
473 -474 458 0
-472 473 -457 0
-473 472 -13 0
-472 473 13 0
-473 472 457 0
173 158 -174 0
172 -171 -156 0
172 -173 157 0
-172 171 -21 0
173 -172 -157 0
-364 23 421 0
364 -23 421 0
-364 23 428 0
364 23 -428 0
-364 -23 -422 0
364 23 -422 0
-364 23 422 0
364 -23 429 0
-364 23 429 0
-364 23 420 0
43 -44 28 0
43 -42 -27 0
-43 42 -11 0
43 -42 11 0
-43 42 27 0
-41 42 -26 0
-42 41 -10 0
-41 42 10 0
-42 41 26 0
41 -25 -40 0
-41 -9 40 0
-50 51 -35 0
-51 50 -19 0
-50 51 19 0
35 50 -51 0
-34 -49 50 0
-50 49 -18 0
-49 50 18 0
-50 34 49 0
-48 49 -33 0
-49 48 -17 0
-48 49 17 0
-52 36 51 0
166 -165 15 0
-166 165 -15 0
166 -165 -150 0
-54 -39 55 0
54 -55 -23 0
-167 166 151 0
364 -23 426 0
364 23 -426 0
-364 23 426 0
-364 -23 -428 0
364 -23 427 0
364 -23 422 0
-364 -23 -423 0
364 23 -423 0
-364 23 423 0
364 -23 423 0
-364 -23 -424 0
364 23 -429 0
-364 -23 -429 0
364 -23 420 0
-364 -23 -421 0
364 23 -421 0
364 -23 428 0
-364 23 424 0
364 -23 424 0
-364 -23 -425 0
-364 23 427 0
364 23 -427 0
-364 -23 -427 0
364 23 -425 0
-364 23 425 0
44 -43 -28 0
-171 172 21 0
43 -44 -12 0
44 -43 12 0
366 9 -365 0
-372 -357 373 0
-373 372 -16 0
-372 16 373 0
372 -373 357 0
556 -572 571 0
572 9 -571 0
-572 -9 571 0
-556 572 -571 0
572 557 -573 0
-580 -565 581 0
581 566 -582 0
-581 19 582 0
581 -19 -582 0
-581 -566 582 0
582 -583 567 0
-585 -570 586 0
585 -586 -23 0
-585 586 23 0
585 570 -586 0
-582 20 583 0
582 -20 -583 0
-368 367 352 0
-369 368 -12 0
-368 12 369 0
-369 368 353 0
368 -352 -367 0
-368 367 -11 0
-372 -15 371 0
15 372 -371 0
-372 356 371 0
-370 -355 371 0
-371 370 -14 0
371 -370 14 0
370 -371 355 0
370 -369 -354 0
369 -370 -13 0
-369 13 370 0
-370 369 354 0
-368 -353 369 0
-482 -467 483 0
482 -483 -23 0
-482 483 23 0
482 467 -483 0
-481 482 -466 0
-482 481 -22 0
482 -481 22 0
-482 481 466 0
-480 481 -465 0
480 -481 -21 0
-480 481 21 0
480 -481 465 0
-479 480 -464 0
-366 367 10 0
366 -367 351 0
-350 366 -365 0
-366 -9 365 0
478 -479 463 0
-477 478 -462 0
477 -478 -18 0
-477 478 18 0
477 -478 462 0
477 -476 -461 0
-477 476 -17 0
477 -476 17 0
-477 476 461 0
476 -475 -460 0
475 -476 -16 0
476 -475 16 0
475 -476 460 0
475 -474 -459 0
578 -579 563 0
-578 579 16 0
578 -579 -16 0
-582 583 -567 0
568 -584 583 0
584 21 -583 0
-584 -21 583 0
-568 584 -583 0
584 -585 569 0
-584 585 22 0
-585 584 -22 0
-584 585 -569 0
576 -577 -14 0
577 -576 -561 0
577 562 -578 0
368 11 -367 0
-572 573 10 0
572 -573 -10 0
-572 -557 573 0
573 558 -574 0
-573 574 11 0
573 -574 -11 0
-573 -558 574 0
574 559 -575 0
-574 575 12 0
-575 574 -12 0
-574 -559 575 0
-576 560 575 0
576 -575 13 0
-576 575 -13 0
576 -560 -575 0
576 -577 561 0
577 -576 14 0
367 -366 -351 0
366 -367 -10 0
-471 472 -456 0
471 -472 -12 0
-471 472 12 0
471 -472 456 0
471 -470 -455 0
-471 470 -11 0
-478 479 -463 0
478 -479 -19 0
-478 479 19 0
-39 23 103 0
39 23 -103 0
-39 -23 -103 0
39 -23 102 0
17 -358 408 0
-17 358 408 0
-359 -18 -409 0
359 18 -409 0
-359 18 409 0
359 -18 409 0
-360 -19 -410 0
360 19 -410 0
-360 19 410 0
360 -19 410 0
-361 -20 -411 0
361 20 -411 0
-361 20 411 0
361 -20 411 0
-362 -21 -412 0
362 21 -412 0
-362 21 412 0
362 -21 412 0
-379 363 -22 0
-359 375 18 0
360 -376 -19 0
-776 -772 -814 0
-775 771 813 0
775 -771 813 0
158 -23 222 0
-158 -223 -23 0
158 -223 23 0
-158 23 223 0
39 -99 23 0
-39 -99 -23 0
39 -23 98 0
-39 23 98 0
39 -98 23 0
-39 -98 -23 0
39 -23 97 0
-39 23 97 0
39 -97 23 0
-39 -97 -23 0
39 -23 96 0
-158 -218 -23 0
158 -218 23 0
-158 23 218 0
158 -23 218 0
39 -23 105 0
379 22 -363 0
-39 23 105 0
39 23 -105 0
-39 -23 -105 0
39 -23 104 0
-39 23 104 0
39 23 -104 0
-39 -23 -104 0
39 -23 103 0
-173 157 -22 0
172 -156 21 0
-191 -158 -23 0
-191 158 23 0
191 -190 -192 0
-191 190 -192 0
191 190 192 0
-191 -190 192 0
-193 -143 -8 0
-193 143 8 0
-143 8 193 0
143 -8 193 0
-144 -9 -194 0
795 -799 828 0
-795 799 828 0
799 795 -828 0
-799 -795 -828 0
-798 794 827 0
-794 798 827 0
794 798 -827 0
-798 -794 -827 0
192 225 -226 0
230 -143 2 0
-230 143 2 0
230 -2 -8 0
-230 -2 8 0
-144 231 2 0
173 -157 22 0
-153 18 203 0
771 775 -813 0
-360 376 19 0
-377 361 -20 0
-771 -775 -813 0
-774 770 812 0
774 -770 812 0
770 774 -812 0
-361 377 20 0
362 -378 -21 0
-770 -774 -812 0
-41 25 -9 0
378 -362 21 0
-39 23 102 0
39 23 -102 0
-39 -23 -102 0
39 -23 101 0
373 16 -357 0
-374 -17 358 0
773 -777 815 0
-773 777 815 0
777 773 -815 0
374 -358 17 0
359 -375 -18 0
-777 -773 -815 0
772 -776 814 0
776 -772 814 0
772 776 -814 0
158 -189 -23 0
-158 189 23 0
-164 165 -149 0
-268 267 -14 0
-267 268 -252 0
-166 165 150 0
-160 -9 159 0
-144 160 -159 0
160 -161 145 0
-160 161 10 0
-161 160 -10 0
-160 161 -145 0
-162 161 146 0
162 -161 11 0
-162 161 -11 0
162 -161 -146 0
-163 162 147 0
-162 163 12 0
-49 33 48 0
-47 48 -32 0
47 -48 -16 0
-47 48 16 0
47 -48 32 0
-46 47 -31 0
46 -47 -15 0
-46 47 15 0
46 -47 31 0
-45 46 -30 0
45 -46 -14 0
-160 144 159 0
167 -166 16 0
-167 166 -16 0
167 -166 -151 0
-54 55 23 0
54 39 -55 0
167 -168 152 0
168 -167 17 0
167 -168 -17 0
-152 168 -167 0
54 -53 -38 0
-54 53 -22 0
-169 168 153 0
169 -168 18 0
-45 46 14 0
45 -46 30 0
-44 45 -29 0
44 -45 -13 0
-44 45 13 0
44 -45 29 0
-267 266 -13 0
267 -266 -251 0
-163 164 13 0
163 -164 -13 0
-163 164 -148 0
267 -268 252 0
164 -165 149 0
-164 165 14 0
164 -165 -14 0
268 -267 14 0
-39 23 99 0
-39 23 96 0
39 -96 23 0
-39 -96 -23 0
39 -23 95 0
-39 23 95 0
39 -95 23 0
-39 -95 -23 0
39 -23 94 0
-39 23 94 0
39 -94 23 0
-39 -94 -23 0
39 -23 93 0
-39 23 93 0
-158 -219 -23 0
158 -219 23 0
-158 23 219 0
158 -23 219 0
-158 -220 -23 0
158 -220 23 0
-158 23 220 0
158 -23 220 0
-158 -221 -23 0
158 -221 23 0
-158 23 221 0
158 -23 221 0
-158 -222 -23 0
158 -222 23 0
-158 23 222 0
160 9 -159 0
264 -263 -248 0
-265 264 249 0
265 -264 11 0
264 -265 -11 0
265 -264 -249 0
-266 265 250 0
266 -265 12 0
-266 265 -12 0
-265 266 -250 0
-162 163 -147 0
-267 266 251 0
267 -266 13 0
163 -164 148 0
39 -93 23 0
-39 -93 -23 0
39 -23 92 0
-364 392 23 0
364 -23 -393 0
-39 23 92 0
39 -92 23 0
-39 23 101 0
39 23 -101 0
-39 -23 -101 0
39 -23 100 0
-39 23 100 0
39 23 -100 0
-39 -23 -100 0
39 -23 99 0
456 12 -506 0
-456 -12 -506 0
-364 -23 -420 0
455 -11 505 0
11 -455 505 0
11 455 -505 0
-455 -11 -505 0
29 13 -79 0
-478 462 -18 0
477 -461 17 0
-454 10 504 0
454 10 -504 0
-454 -10 -504 0
453 -9 503 0
-453 9 503 0
453 9 -503 0
-453 -9 -503 0
452 -8 502 0
-452 8 502 0
452 8 -502 0
-452 -8 -502 0
-500 -499 501 0
500 499 501 0
-500 499 -501 0
500 -499 -501 0
500 467 -23 0
500 -467 23 0
467 -500 23 0
-374 373 358 0
-462 18 512 0
462 18 -512 0
-462 -18 -512 0
461 -17 511 0
-461 17 511 0
461 17 -511 0
467 -23 523 0
-467 23 523 0
-460 16 510 0
360 375 -376 0
-375 376 19 0
375 -376 -19 0
460 16 -510 0
-460 -16 -510 0
459 -15 509 0
-459 15 509 0
459 15 -509 0
-459 -15 -509 0
458 -14 508 0
-458 14 508 0
458 14 -508 0
-458 -14 -508 0
457 -13 507 0
-457 13 507 0
457 13 -507 0
-457 -13 -507 0
456 -12 506 0
-456 12 506 0
557 10 -607 0
-557 -10 -607 0
-570 -23 -620 0
569 -22 619 0
-569 22 619 0
569 22 -619 0
-569 -22 -619 0
568 -21 618 0
437 -9 -4 0
-437 9 -4 0
438 -351 4 0
-438 351 4 0
438 -10 -4 0
72 -71 -73 0
-72 71 -73 0
-438 10 -4 0
439 -352 4 0
-439 352 4 0
439 -11 -4 0
-439 11 -4 0
440 -353 4 0
-440 353 4 0
72 71 73 0
-72 -71 73 0
440 -12 -4 0
-440 12 -4 0
441 -354 4 0
-441 354 4 0
-74 -24 -8 0
-500 -467 -23 0
364 23 -420 0
-39 62 23 0
39 -63 -23 0
374 -375 -18 0
-461 -17 -511 0
-359 -374 375 0
460 -16 510 0
-562 15 612 0
562 15 -612 0
-562 -15 -612 0
561 -14 611 0
-561 14 611 0
561 14 -611 0
-561 -14 -611 0
560 -13 610 0
-560 13 610 0
560 13 -610 0
-560 -13 -610 0
559 -12 609 0
-559 12 609 0
559 12 -609 0
-559 -12 -609 0
558 -11 608 0
-558 11 608 0
558 11 -608 0
-558 -11 -608 0
557 -10 607 0
-557 10 607 0
36 20 -86 0
-477 461 -17 0
-36 -20 -86 0
35 -19 85 0
478 -462 18 0
-479 463 -19 0
444 -16 -4 0
-446 359 4 0
-359 446 4 0
12 28 -78 0
-28 -12 -78 0
-445 17 -4 0
445 -17 -4 0
27 -11 77 0
-27 11 77 0
479 -463 19 0
-480 464 -20 0
-445 358 4 0
445 -358 4 0
-444 16 -4 0
475 -459 15 0
26 -10 76 0
-27 -11 -77 0
30 -14 80 0
-30 14 80 0
471 11 -455 0
449 -21 -4 0
-449 362 4 0
476 -460 16 0
448 -20 -4 0
-448 20 -4 0
-35 19 85 0
449 -362 4 0
-34 18 84 0
34 -18 84 0
-35 -19 -85 0
35 19 -85 0
-472 456 -12 0
-31 -15 -81 0
31 15 -81 0
-449 21 -4 0
450 -363 4 0
-476 460 -16 0
447 -19 -4 0
-447 19 -4 0
37 21 -87 0
-37 -21 -87 0
-29 13 79 0
29 -13 79 0
36 -20 86 0
-36 20 86 0
448 -361 4 0
-448 361 4 0
-30 -14 -80 0
470 -454 10 0
30 14 -80 0
-471 455 -11 0
467 -519 23 0
-467 -519 -23 0
467 -23 518 0
-467 23 518 0
467 23 -518 0
-467 -23 -518 0
467 -23 517 0
-467 23 517 0
454 -10 504 0
364 23 -424 0
467 23 -517 0
-467 -23 -517 0
466 -22 516 0
-466 22 516 0
466 22 -516 0
-466 -22 -516 0
465 -21 515 0
-465 21 515 0
465 21 -515 0
-465 -21 -515 0
464 -20 514 0
-464 20 514 0
464 20 -514 0
-464 -20 -514 0
463 -19 513 0
-463 19 513 0
463 19 -513 0
-463 -19 -513 0
462 -18 512 0
-29 -13 -79 0
-447 360 4 0
447 -360 4 0
-446 18 -4 0
446 -18 -4 0
-12 28 78 0
-28 12 78 0
27 11 -77 0
467 -523 23 0
374 -373 17 0
-374 373 -17 0
-467 -523 -23 0
467 -23 522 0
374 -373 -358 0
-467 23 522 0
467 -522 23 0
359 374 -375 0
-467 -522 -23 0
467 -23 521 0
-467 23 521 0
375 -374 18 0
467 -521 23 0
-467 -521 -23 0
467 -23 520 0
-467 23 520 0
467 -520 23 0
-467 -520 -23 0
467 -23 519 0
-467 23 519 0
-763 767 808 0
767 763 -808 0
-767 -763 -808 0
762 -766 807 0
-762 766 807 0
766 762 -807 0
-766 -762 -807 0
-274 275 21 0
274 -275 -21 0
-274 275 -259 0
275 -276 260 0
-275 276 22 0
275 -276 -22 0
-275 276 -260 0
276 261 -277 0
-276 277 23 0
268 -269 253 0
-268 269 15 0
268 -269 -15 0
-268 269 -253 0
269 -270 254 0
-269 270 16 0
269 -270 -16 0
-269 270 -254 0
270 -271 255 0
-270 271 17 0
270 -271 -17 0
-270 271 -255 0
443 -356 4 0
-443 356 4 0
-25 9 75 0
25 -9 75 0
-26 -10 -76 0
26 10 -76 0
443 -15 -4 0
-443 15 -4 0
-481 465 -21 0
480 -464 20 0
444 -357 4 0
-444 357 4 0
-26 10 76 0
-436 8 -4 0
437 -350 4 0
-437 350 4 0
-364 -23 -430 0
364 23 -430 0
-364 23 430 0
364 -23 430 0
765 -769 810 0
-765 769 810 0
769 765 -810 0
-769 -765 -810 0
764 -768 809 0
-764 768 809 0
768 764 -809 0
-768 -764 -809 0
763 -767 808 0
274 -273 -258 0
274 -275 259 0
-480 479 -20 0
-479 480 20 0
479 -480 464 0
276 -23 -277 0
-276 277 -261 0
-169 168 -18 0
54 -53 22 0
350 -366 365 0
-54 53 38 0
169 -168 -153 0
169 -170 154 0
170 -169 19 0
-170 169 -19 0
-169 -154 170 0
53 -37 -52 0
-53 52 -21 0
170 -171 155 0
171 -170 20 0
-171 170 -20 0
53 -52 21 0
-53 37 52 0
-170 -155 171 0
-172 171 156 0
-51 52 -36 0
-52 51 -20 0
-51 52 20 0
-356 372 -371 0
271 -272 256 0
-271 272 18 0
271 -272 -18 0
-271 272 -256 0
272 -273 257 0
-578 579 -563 0
579 564 -580 0
-579 580 17 0
579 -580 -17 0
-579 -564 580 0
580 565 -581 0
-580 581 18 0
580 -581 -18 0
-272 273 19 0
-273 272 -19 0
-272 273 -257 0
-274 273 258 0
274 -273 20 0
-274 273 -20 0
471 -470 11 0
-471 470 455 0
470 -469 -454 0
-470 469 -10 0
470 -469 10 0
-470 469 454 0
469 -453 -468 0
-469 -9 468 0
469 9 -468 0
-469 453 468 0
-20 -567 -617 0
566 -19 616 0
-566 19 616 0
566 19 -616 0
-566 -19 -616 0
565 -18 615 0
-565 18 615 0
565 18 -615 0
-565 -18 -615 0
564 -17 614 0
-564 17 614 0
564 17 -614 0
-564 -17 -614 0
563 -16 613 0
-563 16 613 0
43 -27 11 0
-44 -12 28 0
44 -28 12 0
-45 29 -13 0
-474 458 -14 0
473 -457 13 0
-33 17 83 0
33 -17 83 0
-34 -18 -84 0
34 18 -84 0
-473 457 -13 0
472 -456 12 0
761 757 -805 0
24 -74 8 0
563 16 -613 0
-563 -16 -613 0
562 -15 612 0
570 -597 -23 0
-570 596 23 0
45 -29 13 0
-46 30 -14 0
46 -30 14 0
-47 31 -15 0
47 -31 15 0
-48 32 -16 0
556 -9 606 0
-556 9 606 0
556 9 -606 0
-556 -9 -606 0
555 -8 605 0
-555 8 605 0
555 -605 8 0
-555 -605 -8 0
-603 -602 604 0
603 602 604 0
-603 602 -604 0
-568 21 618 0
568 21 -618 0
-568 -21 -618 0
-20 567 617 0
20 -567 617 0
567 20 -617 0
32 16 -82 0
-450 22 -4 0
376 -377 -20 0
364 -451 4 0
-361 377 -376 0
-475 459 -15 0
474 -458 14 0
-32 16 82 0
32 -16 82 0
-378 362 377 0
-451 23 -4 0
452 -468 -8 0
-33 -17 -83 0
33 17 -83 0
757 -761 805 0
-757 761 805 0
482 -466 22 0
441 -13 -4 0
-441 13 -4 0
-24 8 74 0
24 -8 74 0
442 -355 4 0
-442 355 4 0
-25 -9 -75 0
25 9 -75 0
-482 466 -22 0
481 -465 21 0
442 -14 -4 0
-442 14 -4 0
-761 -757 -805 0
756 -760 804 0
-756 760 804 0
760 756 -804 0
-760 -756 -804 0
-38 22 88 0
755 -759 803 0
-755 759 803 0
398 431 -432 0
-72 -39 -23 0
-72 39 23 0
436 -349 4 0
-436 349 4 0
436 -8 -4 0
-470 454 -10 0
469 -453 9 0
-37 21 87 0
37 -21 87 0
-38 -22 -88 0
38 22 -88 0
-469 453 -9 0
-360 -375 376 0
361 -377 376 0
-376 377 20 0
-450 363 4 0
450 -22 -4 0
-31 15 81 0
31 -15 81 0
-32 -16 -82 0
655 -568 6 0
-654 20 -6 0
654 -20 -6 0
-654 567 6 0
654 -567 6 0
-653 19 -6 0
653 -19 -6 0
-653 566 6 0
653 -566 6 0
-652 18 -6 0
652 -18 -6 0
-652 565 6 0
-570 23 620 0
570 -23 620 0
-570 -23 -621 0
570 23 -621 0
-570 23 621 0
570 -23 621 0
-570 -622 -23 0
570 -622 23 0
-570 23 622 0
570 -23 622 0
-570 -623 -23 0
570 -623 23 0
-570 23 623 0
570 -23 623 0
-570 -624 -23 0
570 -624 23 0
-649 15 -6 0
649 -15 -6 0
-649 562 6 0
649 -562 6 0
-648 14 -6 0
648 -14 -6 0
652 -565 6 0
-651 17 -6 0
651 -17 -6 0
-651 564 6 0
651 -564 6 0
501 534 -535 0
539 -452 5 0
-570 -627 -23 0
570 -627 23 0
-570 23 627 0
570 -23 627 0
-570 -628 -23 0
570 -628 23 0
-570 23 628 0
570 -23 628 0
-570 -629 -23 0
-545 458 5 0
545 -14 -5 0
-545 14 -5 0
-569 656 6 0
-655 21 -6 0
655 -21 -6 0
-655 568 6 0
138 -35 1 0
-137 18 -1 0
137 -18 -1 0
-137 34 1 0
137 -34 1 0
-136 17 -1 0
136 -17 -1 0
-136 33 1 0
29 -132 1 0
-29 132 1 0
12 -131 -1 0
131 -12 -1 0
-294 -23 -261 0
-294 261 23 0
37 -140 1 0
-37 140 1 0
-139 20 -1 0
139 -20 -1 0
-256 18 306 0
256 -18 306 0
-257 -19 -307 0
257 19 -307 0
-257 19 307 0
257 -19 307 0
-258 -20 -308 0
258 20 -308 0
-258 20 308 0
258 -20 308 0
-570 23 624 0
570 -23 624 0
-570 -625 -23 0
570 -629 23 0
-570 23 629 0
570 -23 629 0
-570 -630 -23 0
570 -630 23 0
-570 23 630 0
570 -23 630 0
-570 -631 -23 0
570 -631 23 0
-570 23 631 0
570 -23 631 0
-570 -632 -23 0
570 -632 23 0
-570 23 632 0
570 -23 632 0
-570 -633 -23 0
570 -633 23 0
-570 23 633 0
570 23 -620 0
-139 36 1 0
139 -36 1 0
-138 19 -1 0
138 -19 -1 0
286 -261 23 0
-287 -23 261 0
-138 35 1 0
549 -18 -5 0
-549 18 -5 0
550 -463 5 0
463 -550 5 0
550 -19 -5 0
-550 19 -5 0
551 -464 5 0
577 -561 14 0
562 -578 -15 0
-562 578 15 0
-579 563 -16 0
579 -563 16 0
564 -580 -17 0
-564 580 17 0
565 -581 -18 0
-565 581 18 0
566 -19 -582 0
54 -38 22 0
-566 19 582 0
35 -51 -19 0
-34 50 18 0
34 -50 -18 0
49 -33 17 0
33 -49 -17 0
48 -32 16 0
-576 560 -13 0
576 -560 13 0
-577 561 -14 0
453 -540 5 0
464 -551 5 0
551 -20 -5 0
-551 20 -5 0
552 -465 5 0
465 -552 5 0
552 -21 -5 0
568 -584 -21 0
-54 -22 38 0
-37 53 21 0
-568 584 21 0
-585 569 -22 0
37 -53 -21 0
-36 52 20 0
-569 585 22 0
36 -52 -20 0
-35 51 19 0
546 -15 -5 0
-546 15 -5 0
547 -460 5 0
460 -547 5 0
547 -16 -5 0
-547 16 -5 0
548 -461 5 0
461 -548 5 0
548 -17 -5 0
-548 17 -5 0
549 -462 5 0
-549 462 5 0
646 -559 6 0
-645 11 -6 0
645 -11 -6 0
-645 558 6 0
645 -558 6 0
-644 10 -6 0
-648 561 6 0
648 -561 6 0
-647 13 -6 0
-43 27 -11 0
42 -26 10 0
-42 26 -10 0
41 -25 9 0
-603 -570 -23 0
-603 570 23 0
603 -602 -604 0
570 -23 634 0
-570 -635 -23 0
570 -635 23 0
-570 23 635 0
570 -23 635 0
-570 -636 -23 0
570 -636 23 0
-570 23 636 0
570 -23 636 0
-650 16 -6 0
650 -16 -6 0
-650 563 6 0
650 -563 6 0
644 -10 -6 0
-644 557 6 0
644 -557 6 0
-643 9 -6 0
643 -9 -6 0
-643 556 6 0
643 -556 6 0
-642 -6 8 0
642 -6 -8 0
604 637 -638 0
642 -555 6 0
-642 555 6 0
570 -23 633 0
-570 -634 -23 0
570 -634 23 0
-570 23 634 0
570 -625 23 0
-570 23 625 0
570 -23 625 0
-570 -626 -23 0
570 -626 23 0
-570 23 626 0
570 -23 626 0
647 -13 -6 0
-647 560 6 0
647 -560 6 0
-646 12 -6 0
646 -12 -6 0
-646 559 6 0
-163 147 -12 0
276 -260 22 0
162 -146 11 0
-162 146 -11 0
161 -145 10 0
-552 21 -5 0
553 -466 5 0
466 -553 5 0
553 -22 -5 0
-553 22 -5 0
-251 13 301 0
251 -13 301 0
-252 -14 -302 0
-245 -2 23 0
-262 246 -8 0
-263 -9 247 0
-172 156 -21 0
171 -155 20 0
263 -247 9 0
-264 -10 248 0
-171 155 -20 0
264 10 -248 0
-265 249 -11 0
170 -154 19 0
265 11 -249 0
-266 250 -12 0
-170 154 -19 0
169 -153 18 0
-274 258 -20 0
164 -148 13 0
-161 145 -10 0
160 -144 9 0
-160 144 -9 0
143 -159 -8 0
-142 23 -1 0
39 -142 1 0
-141 22 -1 0
141 -22 -1 0
467 -554 5 0
-554 -5 23 0
555 -571 -8 0
556 -572 -9 0
-556 572 9 0
557 -573 -10 0
-557 573 10 0
558 -574 -11 0
-558 574 11 0
-575 559 -12 0
575 -559 12 0
546 -459 5 0
-546 459 5 0
274 -258 20 0
-275 259 -21 0
-164 148 -13 0
163 -147 12 0
275 -259 21 0
-276 260 -22 0
243 -156 2 0
-243 156 2 0
243 -21 -2 0
-243 21 -2 0
244 -157 2 0
269 -253 15 0
167 -151 16 0
-168 152 -17 0
-269 253 -15 0
268 -252 14 0
168 -152 17 0
-268 252 -14 0
267 -251 13 0
-169 153 -18 0
-267 251 -13 0
158 -245 2 0
-244 22 -2 0
244 -22 -2 0
-244 157 2 0
238 -16 -2 0
-238 16 -2 0
239 -152 2 0
-239 152 2 0
239 -17 -2 0
-239 17 -2 0
240 -153 2 0
-240 153 2 0
240 -18 -2 0
266 -250 12 0
246 -8 296 0
-247 -9 -297 0
9 247 -297 0
-247 9 297 0
-9 247 297 0
-10 -248 -298 0
10 248 -298 0
10 -248 298 0
-10 248 298 0
-11 -249 -299 0
249 11 -299 0
11 -249 299 0
249 -11 299 0
-250 -12 -300 0
250 12 -300 0
-250 12 300 0
250 -12 300 0
-251 -13 -301 0
251 13 -301 0
-240 18 -2 0
241 -154 2 0
-241 154 2 0
241 -19 -2 0
-241 19 -2 0
242 -155 2 0
-242 155 2 0
242 -20 -2 0
-242 20 -2 0
158 -23 208 0
-158 -209 -23 0
-209 158 23 0
-158 23 209 0
158 -23 209 0
-158 -210 -23 0
-210 158 23 0
-158 23 210 0
146 11 -196 0
-146 11 196 0
146 -11 196 0
-147 -12 -197 0
147 12 -197 0
-147 12 197 0
147 -12 197 0
-148 -13 -198 0
148 13 -198 0
-148 13 198 0
153 -18 203 0
-154 -19 -204 0
154 19 -204 0
-154 19 204 0
154 -19 204 0
-155 -20 -205 0
155 20 -205 0
-155 20 205 0
155 -20 205 0
-156 -21 -206 0
-259 -21 -309 0
259 21 -309 0
294 -293 -295 0
-294 293 -295 0
294 293 295 0
-294 -293 295 0
-246 -296 -8 0
246 -296 8 0
-246 8 296 0
136 -33 1 0
-135 16 -1 0
252 14 -302 0
-252 14 302 0
252 -14 302 0
-253 -15 -303 0
253 15 -303 0
-253 15 303 0
253 -15 303 0
-254 -16 -304 0
254 16 -304 0
-254 16 304 0
254 -16 304 0
-255 -17 -305 0
255 17 -305 0
-255 17 305 0
255 -17 305 0
-256 -18 -306 0
256 18 -306 0
-158 23 208 0
-150 15 200 0
150 -15 200 0
-151 -16 -201 0
151 16 -201 0
-151 16 201 0
151 -16 201 0
-152 -17 -202 0
152 17 -202 0
-152 17 202 0
152 -17 202 0
-153 -18 -203 0
153 18 -203 0
-141 38 1 0
-38 141 1 0
-140 21 -1 0
140 -21 -1 0
-270 254 -16 0
-167 151 -16 0
270 -254 16 0
-271 255 -17 0
166 -150 15 0
271 -255 17 0
-272 256 -18 0
-166 150 -15 0
165 -149 14 0
272 -256 18 0
-273 257 -19 0
-165 149 -14 0
273 -257 19 0
156 21 -206 0
-156 21 206 0
156 -21 206 0
-157 -22 -207 0
157 22 -207 0
-157 22 207 0
157 -22 207 0
-158 -208 -23 0
-208 158 23 0
135 -16 -1 0
32 -135 1 0
-32 135 1 0
-134 15 -1 0
134 -15 -1 0
-134 31 1 0
134 -31 1 0
-133 14 -1 0
133 -14 -1 0
-133 30 1 0
133 -30 1 0
-132 13 -1 0
132 -13 -1 0
148 -13 198 0
-149 -14 -199 0
149 14 -199 0
-149 14 199 0
149 -14 199 0
-150 -15 -200 0
150 15 -200 0
-259 21 309 0
259 -21 309 0
-260 -22 -310 0
260 22 -310 0
-260 22 310 0
260 -22 310 0
-23 -311 -261 0
261 -311 23 0
-261 23 311 0
-23 261 311 0
-23 -312 -261 0
261 -312 23 0
-261 23 312 0
-345 20 -3 0
-259 346 3 0
259 -346 3 0
346 -21 -3 0
-346 21 -3 0
249 -336 3 0
-11 336 -3 0
-336 11 -3 0
-250 337 3 0
250 -337 3 0
337 -12 -3 0
-337 12 -3 0
-251 338 3 0
251 -338 3 0
338 -13 -3 0
-23 -261 -317 0
261 23 -317 0
-261 23 317 0
-23 261 317 0
-23 261 312 0
-23 -313 -261 0
261 -313 23 0
-261 23 313 0
-23 261 313 0
-23 -261 -314 0
261 23 -314 0
-261 23 314 0
-23 261 314 0
-23 -261 -315 0
261 23 -315 0
-261 23 315 0
-23 261 315 0
-23 -261 -316 0
261 23 -316 0
-261 23 316 0
-23 261 316 0
781 -785 820 0
-781 785 820 0
-23 -261 -323 0
261 23 -323 0
-261 23 323 0
-23 261 323 0
-23 -261 -324 0
261 23 -324 0
26 -129 1 0
367 -351 10 0
-368 352 -11 0
-26 129 1 0
-128 9 -1 0
-127 24 1 0
127 -8 -1 0
-260 347 3 0
372 15 -356 0
128 -9 -1 0
260 -347 3 0
-339 14 -3 0
-253 340 3 0
253 -340 3 0
340 -15 -3 0
-340 15 -3 0
341 -254 3 0
254 -341 3 0
341 -16 -3 0
-341 16 -3 0
-255 342 3 0
350 -366 -9 0
-28 131 1 0
-130 11 -1 0
130 -11 -1 0
27 -130 1 0
366 -350 9 0
370 13 -354 0
-338 13 -3 0
-252 339 3 0
-339 252 3 0
339 -14 -3 0
255 -342 3 0
342 -17 -3 0
-342 17 -3 0
-256 343 3 0
256 -343 3 0
-369 -12 353 0
128 -25 1 0
368 -352 11 0
343 -18 -3 0
-373 -16 357 0
-128 25 1 0
-343 18 -3 0
-257 344 3 0
257 -344 3 0
344 -19 -3 0
-344 19 -3 0
-258 345 3 0
-345 258 3 0
345 -20 -3 0
127 -24 1 0
-370 -13 354 0
-27 130 1 0
369 12 -353 0
-129 10 -1 0
129 -10 -1 0
158 -224 23 0
-158 23 224 0
158 -23 224 0
158 -23 210 0
-158 -211 -23 0
-211 158 23 0
-158 23 211 0
158 -23 211 0
-158 -212 -23 0
-212 158 23 0
-158 23 212 0
158 -23 212 0
-158 -23 -213 0
158 23 -213 0
-158 23 213 0
236 -14 -2 0
-236 14 -2 0
-150 237 2 0
150 -237 2 0
237 -15 -2 0
-237 15 -2 0
238 -151 2 0
-238 151 2 0
24 -40 -8 0
797 -801 830 0
-797 801 830 0
801 797 -830 0
-801 -797 -830 0
144 9 -194 0
-144 9 194 0
144 -9 194 0
-145 -10 -195 0
145 10 -195 0
-145 10 195 0
145 -10 195 0
-146 -11 -196 0
158 -23 213 0
-158 -23 -214 0
158 23 -214 0
-158 23 214 0
158 -23 214 0
-158 -215 -23 0
-215 158 23 0
-158 23 215 0
158 -23 215 0
-158 -216 -23 0
-216 158 23 0
-158 23 216 0
158 -23 216 0
-158 -217 -23 0
-217 158 23 0
-158 23 217 0
158 -23 217 0
144 -231 2 0
231 -9 -2 0
158 -23 223 0
-158 -224 -23 0
-261 23 319 0
-23 261 319 0
-23 -261 -320 0
261 23 -320 0
-261 23 320 0
-23 261 320 0
-23 -261 -321 0
261 23 -321 0
-261 23 321 0
-23 261 321 0
-23 -261 -322 0
261 23 -322 0
-261 23 322 0
-23 261 322 0
-127 8 -1 0
-778 -782 -817 0
778 782 -817 0
-372 -15 356 0
347 -22 -3 0
-347 22 -3 0
-348 261 3 0
-348 23 -3 0
-365 349 -8 0
371 14 -355 0
782 -778 817 0
-782 778 817 0
-783 -779 -818 0
73 106 -107 0
-371 -14 355 0
796 -800 829 0
-796 800 829 0
800 796 -829 0
-800 -796 -829 0
-231 9 -2 0
232 -145 2 0
145 -232 2 0
232 -10 -2 0
-232 10 -2 0
-146 233 2 0
146 -233 2 0
233 -11 -2 0
-233 11 -2 0
-147 234 2 0
147 -234 2 0
234 -12 -2 0
-234 12 -2 0
-148 235 2 0
148 -235 2 0
235 -13 -2 0
-235 13 -2 0
236 -149 2 0
-236 149 2 0
-23 -261 -318 0
261 23 -318 0
-261 23 318 0
-23 261 318 0
-23 -261 -319 0
261 23 -319 0
-788 -792 -824 0
787 -791 823 0
-787 791 823 0
791 787 -823 0
-791 -787 -823 0
786 -790 822 0
-786 790 822 0
790 786 -822 0
-790 -786 -822 0
758 -754 802 0
754 758 -802 0
-754 -758 -802 0
-657 -6 23 0
570 -657 6 0
-656 22 -6 0
656 -22 -6 0
-656 569 6 0
-467 -524 -23 0
467 -524 23 0
-467 23 524 0
467 -23 524 0
-467 -525 -23 0
467 -525 23 0
-467 23 525 0
467 -23 525 0
-467 -526 -23 0
467 -526 23 0
-467 23 526 0
-397 -396 398 0
-8 -349 -399 0
8 349 -399 0
8 -349 399 0
-8 349 399 0
-350 -9 -400 0
350 9 -400 0
-350 9 400 0
350 -9 400 0
-351 -10 -401 0
351 10 -401 0
-351 10 401 0
351 -10 401 0
-352 -11 -402 0
352 11 -402 0
-352 11 402 0
352 -11 402 0
-12 -353 -403 0
12 353 -403 0
261 23 -327 0
-261 23 327 0
-23 261 327 0
789 -793 825 0
-789 793 825 0
793 789 -825 0
-793 -789 -825 0
-792 788 824 0
792 -788 824 0
788 792 -824 0
11 -542 -5 0
-456 543 5 0
456 -543 5 0
543 -12 -5 0
-543 12 -5 0
544 -457 5 0
457 -544 5 0
544 -13 -5 0
-544 13 -5 0
545 -458 5 0
-467 -527 -23 0
467 -527 23 0
-467 23 527 0
467 -23 527 0
-467 -528 -23 0
467 -528 23 0
-467 23 528 0
467 -23 528 0
-467 -529 -23 0
467 -529 23 0
-467 23 529 0
467 -23 529 0
-467 -530 -23 0
467 -530 23 0
-539 452 5 0
539 -5 -8 0
-539 -5 8 0
-453 540 5 0
467 -23 526 0
567 -583 -20 0
-567 583 20 0
-467 23 530 0
467 -23 530 0
-467 -531 -23 0
467 -531 23 0
-467 23 531 0
467 -23 531 0
-467 -532 -23 0
467 -532 23 0
-467 23 532 0
467 -23 532 0
-467 -533 -23 0
467 -533 23 0
-467 23 533 0
467 -23 533 0
759 755 -803 0
-759 -755 -803 0
-758 754 802 0
540 -9 -5 0
-540 9 -5 0
-454 541 5 0
454 -541 5 0
541 -10 -5 0
-541 10 -5 0
542 -455 5 0
-542 455 5 0
542 -11 -5 0
39 -23 90 0
364 -23 417 0
-364 -23 -418 0
364 23 -418 0
-364 23 418 0
364 -23 418 0
-364 -23 -419 0
364 23 -419 0
-364 23 419 0
364 -23 419 0
-15 -356 -406 0
15 356 -406 0
-356 15 406 0
356 -15 406 0
-16 -357 -407 0
16 357 -407 0
-357 16 407 0
357 -16 407 0
-358 -17 -408 0
358 17 -408 0
-363 -22 -413 0
22 363 -413 0
-363 22 413 0
363 -22 413 0
-364 -23 -414 0
364 23 -414 0
-364 23 414 0
364 -23 414 0
351 -367 -10 0
-39 23 90 0
39 -90 23 0
-39 -90 -23 0
39 -23 89 0
-39 23 89 0
39 -89 23 0
-39 -89 -23 0
38 -22 88 0
-397 -364 -23 0
-397 364 23 0
397 -396 -398 0
-397 396 -398 0
397 396 398 0
-353 12 403 0
353 -12 403 0
-13 -354 -404 0
13 354 -404 0
-354 13 404 0
354 -13 404 0
-14 -355 -405 0
14 355 -405 0
-355 14 405 0
355 -14 405 0
-39 -92 -23 0
39 -23 91 0
-39 23 91 0
39 -91 23 0
-39 -91 -23 0
336 -249 3 0
-261 23 324 0
-23 261 324 0
-23 -261 -325 0
261 23 -325 0
-261 23 325 0
-23 261 325 0
-23 -261 -326 0
261 23 -326 0
-261 23 326 0
-23 261 326 0
-23 -261 -327 0
785 781 -820 0
-785 -781 -820 0
780 -784 819 0
784 -780 819 0
780 784 -819 0
-784 -780 -819 0
779 -783 818 0
28 -131 1 0
783 -779 818 0
779 783 -818 0
295 328 -329 0
333 -246 3 0
-333 246 3 0
333 -8 -3 0
-333 8 -3 0
-247 334 3 0
-364 -23 -415 0
364 23 -415 0
-364 23 415 0
10 -335 -3 0
-10 335 -3 0
-335 248 3 0
335 -248 3 0
9 -334 -3 0
334 -9 -3 0
-334 247 3 0
-364 23 417 0
364 23 -417 0
-364 -23 -417 0
364 -23 416 0
-364 23 416 0
364 23 -416 0
-364 -23 -416 0
364 -23 415 0
-494 495 0
494 -495 0
-493 494 0
493 -494 0
-492 493 0
492 -493 0
391 -390 0
-391 390 0
396 -395 0
-396 395 0
-490 491 0
395 -394 0
491 -492 0
-491 492 0
490 -491 0
40 8 0
71 -70 0
-68 67 0
-60 61 0
60 -61 0
68 -67 0
-59 60 0
59 -60 0
483 -484 0
-486 487 0
486 -487 0
-485 486 0
485 -486 0
-484 485 0
-452 468 0
174 -175 0
-174 175 0
175 -176 0
-555 571 0
571 8 0
554 -23 0
-570 657 0
657 -23 0
-175 176 0
176 -177 0
-176 177 0
177 -178 0
-177 178 0
-178 179 0
554 -467 0
-39 142 0
142 -23 0
-364 451 0
451 -23 0
178 -179 0
-489 490 0
489 -490 0
-488 489 0
488 -489 0
-487 488 0
487 -488 0
-495 496 0
495 -496 0
-74 -106 0
-75 -106 0
-313 -328 0
-305 -328 0
-306 -328 0
-307 -328 0
-308 -328 0
-309 -328 0
-310 -328 0
-311 -328 0
-212 -225 0
-312 -328 0
-193 -225 0
-194 -225 0
-211 -225 0
-210 -225 0
-209 -225 0
-208 -225 0
-207 -225 0
-195 -225 0
-196 -225 0
-197 -225 0
-198 -225 0
-206 -225 0
-205 -225 0
-199 -225 0
-200 -225 0
-204 -225 0
-203 -225 0
-202 -225 0
-201 -225 0
468 8 0
484 -485 0
-483 484 0
-215 -225 0
-216 -225 0
-217 -225 0
-99 -106 0
-98 -106 0
-97 -106 0
-96 -106 0
-95 -106 0
-94 -106 0
-93 -106 0
-92 -106 0
-91 -106 0
-90 -106 0
-89 -106 0
-88 -106 0
-87 -106 0
-86 -106 0
-85 -106 0
-84 -106 0
-83 -106 0
-82 -106 0
-81 -106 0
-80 -106 0
-79 -106 0
-78 -106 0
-77 -106 0
-76 -106 0
-395 394 0
394 -393 0
-394 393 0
393 -392 0
-393 392 0
392 -391 0
-392 391 0
-588 589 0
588 -589 0
-587 588 0
587 -588 0
-586 587 0
586 -587 0
593 -592 0
-593 592 0
-182 183 0
182 -183 0
-181 182 0
181 -182 0
-180 181 0
180 -181 0
-179 180 0
179 -180 0
188 -187 0
-188 187 0
187 -186 0
-187 186 0
186 -185 0
-186 185 0
386 -385 0
-599 598 0
599 -598 0
-600 599 0
600 -599 0
-601 600 0
601 -600 0
499 -498 0
-499 498 0
498 -497 0
-602 601 0
602 -601 0
-594 593 0
-498 497 0
-496 497 0
594 -593 0
-595 594 0
496 -497 0
-598 597 0
598 -597 0
597 -596 0
-597 596 0
595 -594 0
596 -595 0
-596 595 0
-592 591 0
592 -591 0
591 -590 0
-591 590 0
-589 590 0
589 -590 0
-67 66 0
67 -66 0
56 -57 0
70 -69 0
-70 69 0
-56 57 0
-55 56 0
55 -56 0
-71 70 0
-58 59 0
58 -59 0
69 -68 0
-57 58 0
57 -58 0
-69 68 0
61 -62 0
-61 62 0
62 -63 0
-62 63 0
63 -64 0
-63 64 0
64 -65 0
-64 65 0
-66 65 0
262 8 0
-246 262 0
-158 245 0
245 -23 0
-143 159 0
159 8 0
-381 382 0
381 -382 0
-380 381 0
380 -381 0
190 -189 0
-190 189 0
189 -188 0
-189 188 0
-24 40 0
183 -184 0
277 -278 0
-277 278 0
-284 285 0
284 -285 0
-283 284 0
283 -284 0
-282 283 0
282 -283 0
-281 282 0
281 -282 0
-280 281 0
185 -184 0
-185 184 0
-183 184 0
280 -281 0
-279 280 0
279 -280 0
-278 279 0
278 -279 0
66 -65 0
-303 -328 0
-304 -328 0
-622 -637 0
-623 -637 0
-624 -637 0
-625 -637 0
-626 -637 0
-627 -637 0
-628 -637 0
-629 -637 0
-630 -637 0
-631 -637 0
-632 -637 0
-633 -637 0
-634 -637 0
-635 -637 0
-636 -637 0
-604 638 0
638 -637 0
-519 -534 0
-520 -534 0
-521 -534 0
-522 -534 0
-523 -534 0
-524 -534 0
-525 -534 0
-526 -534 0
-527 -534 0
-528 -534 0
-402 -431 0
-532 -534 0
-533 -534 0
-501 535 0
535 -534 0
-605 -637 0
-606 -637 0
-607 -637 0
-608 -637 0
-609 -637 0
-610 -637 0
-611 -637 0
-612 -637 0
-218 -225 0
-219 -225 0
-220 -225 0
-221 -225 0
-222 -225 0
-223 -225 0
-224 -225 0
-192 226 0
226 -225 0
-296 -328 0
-297 -328 0
-298 -328 0
-299 -328 0
-300 -328 0
-301 -328 0
-302 -328 0
383 -384 0
-382 383 0
384 -383 0
387 -386 0
386 -387 0
293 -292 0
-293 292 0
292 -291 0
-292 291 0
2 226 0
-2 -226 0
226 -227 0
-835 833 0
835 -833 0
-834 832 0
-832 834 0
638 -639 0
107 -108 0
1 107 0
-1 -107 0
-433 432 0
-4 -432 0
4 432 0
5 535 0
-5 -535 0
535 -536 0
329 -330 0
-3 -329 0
3 329 0
6 638 0
-6 -638 0
-401 -431 0
-529 -534 0
-530 -534 0
-531 -534 0
384 -385 0
385 -384 0
385 -386 0
-290 289 0
290 -289 0
-289 288 0
289 -288 0
-291 290 0
288 -287 0
-288 287 0
287 -286 0
286 -287 0
-285 286 0
285 -286 0
291 -290 0
-23 348 0
390 -389 0
-390 389 0
389 -388 0
-389 388 0
8 365 0
388 -387 0
-388 387 0
-349 365 0
348 -261 0
382 -383 0
816 -330 0
330 -816 0
-314 -328 0
-315 -328 0
-316 -328 0
-317 -328 0
-318 -328 0
-319 -328 0
-320 -328 0
-321 -328 0
-322 -328 0
-323 -328 0
-324 -328 0
-325 -328 0
-326 -328 0
-327 -328 0
-295 329 0
-328 329 0
107 -106 0
-73 107 0
-105 -106 0
-104 -106 0
-103 -106 0
-102 -106 0
-101 -106 0
-100 -106 0
227 -811 0
811 -227 0
-810 -811 0
-809 -811 0
-213 -225 0
-214 -225 0
-822 -826 0
-823 -826 0
-824 -826 0
-825 -826 0
826 -536 0
536 -826 0
108 -806 0
806 -108 0
-805 -806 0
-804 -806 0
-803 -806 0
-802 -806 0
-827 -831 0
-828 -831 0
-829 -831 0
-830 -831 0
831 -639 0
639 -831 0
-821 433 0
821 -433 0
-820 -821 0
-819 -821 0
-818 -821 0
-817 -821 0
-815 -816 0
-814 -816 0
-813 -816 0
-812 -816 0
-620 -637 0
-621 -637 0
-424 -431 0
-425 -431 0
-426 -431 0
-427 -431 0
-428 -431 0
-429 -431 0
-430 -431 0
-398 432 0
432 -431 0
-502 -534 0
-503 -534 0
-504 -534 0
-505 -534 0
-506 -534 0
-507 -534 0
-508 -534 0
-509 -534 0
-510 -534 0
-511 -534 0
-512 -534 0
-513 -534 0
-514 -534 0
-515 -534 0
-516 -534 0
-517 -534 0
-518 -534 0
-399 -431 0
-400 -431 0
-808 -811 0
-807 -811 0
-403 -431 0
-404 -431 0
-405 -431 0
-406 -431 0
-407 -431 0
-408 -431 0
-409 -431 0
-410 -431 0
-411 -431 0
-412 -431 0
-413 -431 0
-414 -431 0
-415 -431 0
-416 -431 0
-417 -431 0
-418 -431 0
-419 -431 0
-420 -431 0
-421 -431 0
-422 -431 0
-423 -431 0
-613 -637 0
-614 -637 0
-615 -637 0
-616 -637 0
-617 -637 0
-618 -637 0
-619 -637 0
c p weight 8 0.51801657 0
c p weight -8 0.48198343 0
c p weight 9 0.35024630 0
c p weight -9 0.64975370 0
c p weight 10 0.61439705 0
c p weight -10 0.38560295 0
c p weight 11 0.72727923 0
c p weight -11 0.27272077 0
c p weight 12 0.53480197 0
c p weight -12 0.46519803 0
c p weight 13 0.60254669 0
c p weight -13 0.39745331 0
c p weight 14 0.23305488 0
c p weight -14 0.76694512 0
c p weight 15 0.73741048 0
c p weight -15 0.26258952 0
c p weight 16 0.22337137 0
c p weight -16 0.77662863 0
c p weight 17 0.63506578 0
c p weight -17 0.36493422 0
c p weight 18 0.70734477 0
c p weight -18 0.29265523 0
c p weight 19 0.66010175 0
c p weight -19 0.33989825 0
c p weight 20 0.40928090 0
c p weight -20 0.59071910 0
c p weight 21 0.21362352 0
c p weight -21 0.78637648 0
c p weight 22 0.74958252 0
c p weight -22 0.25041748 0
c p weight 23 0.59327556 0
c p weight -23 0.40672444 0
c p weight 539 0.68403871 0
c p weight -539 0.31596129 0
c p weight 540 0.68528255 0
c p weight -540 0.31471745 0
c p weight 541 0.62529581 0
c p weight -541 0.37470419 0
c p weight 542 0.30777148 0
c p weight -542 0.69222852 0
c p weight 543 0.64771918 0
c p weight -543 0.35228082 0
c p weight 544 0.37629991 0
c p weight -544 0.62370009 0
c p weight 545 0.40269690 0
c p weight -545 0.59730310 0
c p weight 546 0.32373237 0
c p weight -546 0.67626763 0
c p weight 547 0.31320103 0
c p weight -547 0.68679897 0
c p weight 548 0.41214353 0
c p weight -548 0.58785647 0
c p weight 549 0.21780964 0
c p weight -549 0.78219036 0
c p weight 550 0.28381870 0
c p weight -550 0.71618130 0
c p weight 551 0.47314846 0
c p weight -551 0.52685154 0
c p weight 552 0.21640515 0
c p weight -552 0.78359485 0
c p weight 553 0.24366328 0
c p weight -553 0.75633672 0
c p weight 554 0.47553000 0
c p weight -554 0.52447000 0
c p weight 333 0.38604674 0
c p weight -333 0.61395326 0
c p weight 334 0.21055398 0
c p weight -334 0.78944602 0
c p weight 335 0.64480752 0
c p weight -335 0.35519248 0
c p weight 336 0.38474955 0
c p weight -336 0.61525045 0
c p weight 337 0.38748887 0
c p weight -337 0.61251113 0
c p weight 338 0.68048858 0
c p weight -338 0.31951142 0
c p weight 339 0.54011158 0
c p weight -339 0.45988842 0
c p weight 340 0.70583720 0
c p weight -340 0.29416280 0
c p weight 341 0.27103515 0
c p weight -341 0.72896485 0
c p weight 342 0.43502435 0
c p weight -342 0.56497565 0
c p weight 343 0.70025894 0
c p weight -343 0.29974106 0
c p weight 344 0.77208271 0
c p weight -344 0.22791729 0
c p weight 345 0.63833454 0
c p weight -345 0.36166546 0
c p weight 346 0.30782444 0
c p weight -346 0.69217556 0
c p weight 347 0.76567552 0
c p weight -347 0.23432448 0
c p weight 348 0.30576462 0
c p weight -348 0.69423538 0
c p weight 127 0.20142796 0
c p weight -127 0.79857204 0
c p weight 128 0.71545684 0
c p weight -128 0.28454316 0
c p weight 129 0.27549362 0
c p weight -129 0.72450638 0
c p weight 130 0.33883641 0
c p weight -130 0.66116359 0
c p weight 131 0.22848888 0
c p weight -131 0.77151112 0
c p weight 132 0.56342155 0
c p weight -132 0.43657845 0
c p weight 133 0.47607283 0
c p weight -133 0.52392717 0
c p weight 134 0.55031240 0
c p weight -134 0.44968760 0
c p weight 135 0.60130405 0
c p weight -135 0.39869595 0
c p weight 136 0.41866967 0
c p weight -136 0.58133033 0
c p weight 137 0.63050063 0
c p weight -137 0.36949937 0
c p weight 138 0.42079247 0
c p weight -138 0.57920753 0
c p weight 139 0.61056782 0
c p weight -139 0.38943218 0
c p weight 140 0.70907406 0
c p weight -140 0.29092594 0
c p weight 141 0.50482109 0
c p weight -141 0.49517891 0
c p weight 142 0.75248218 0
c p weight -142 0.24751782 0
c p weight 646 0.53707740 0
c p weight -646 0.46292260 0
c p weight 647 0.45384007 0
c p weight -647 0.54615993 0
c p weight 648 0.62273379 0
c p weight -648 0.37726621 0
c p weight 649 0.55802833 0
c p weight -649 0.44197167 0
c p weight 650 0.41573229 0
c p weight -650 0.58426771 0
c p weight 651 0.32534583 0
c p weight -651 0.67465417 0
c p weight 652 0.25712033 0
c p weight -652 0.74287967 0
c p weight 653 0.41391865 0
c p weight -653 0.58608135 0
c p weight 654 0.58476182 0
c p weight -654 0.41523818 0
c p weight 655 0.23661647 0
c p weight -655 0.76338353 0
c p weight 656 0.78846061 0
c p weight -656 0.21153939 0
c p weight 657 0.21574788 0
c p weight -657 0.78425212 0
c p weight 642 0.57922221 0
c p weight -642 0.42077779 0
c p weight 643 0.72753482 0
c p weight -643 0.27246518 0
c p weight 644 0.67563737 0
c p weight -644 0.32436263 0
c p weight 645 0.70922816 0
c p weight -645 0.29077184 0
c p weight 436 0.74646946 0
c p weight -436 0.25353054 0
c p weight 437 0.61331292 0
c p weight -437 0.38668708 0
c p weight 438 0.36694900 0
c p weight -438 0.63305100 0
c p weight 439 0.34362303 0
c p weight -439 0.65637697 0
c p weight 440 0.29095250 0
c p weight -440 0.70904750 0
c p weight 441 0.44392849 0
c p weight -441 0.55607151 0
c p weight 442 0.32781262 0
c p weight -442 0.67218738 0
c p weight 443 0.32470018 0
c p weight -443 0.67529982 0
c p weight 444 0.67698187 0
c p weight -444 0.32301813 0
c p weight 445 0.71107443 0
c p weight -445 0.28892557 0
c p weight 446 0.48153400 0
c p weight -446 0.51846600 0
c p weight 447 0.32135182 0
c p weight -447 0.67864818 0
c p weight 448 0.23597166 0
c p weight -448 0.76402834 0
c p weight 449 0.52785514 0
c p weight -449 0.47214486 0
c p weight 450 0.78530183 0
c p weight -450 0.21469817 0
c p weight 451 0.72181538 0
c p weight -451 0.27818462 0
c p weight 230 0.56908012 0
c p weight -230 0.43091988 0
c p weight 231 0.77618779 0
c p weight -231 0.22381221 0
c p weight 232 0.75405076 0
c p weight -232 0.24594924 0
c p weight 233 0.25278151 0
c p weight -233 0.74721849 0
c p weight 234 0.29528797 0
c p weight -234 0.70471203 0
c p weight 235 0.35015506 0
c p weight -235 0.64984494 0
c p weight 236 0.43098029 0
c p weight -236 0.56901971 0
c p weight 237 0.37567853 0
c p weight -237 0.62432147 0
c p weight 238 0.63323342 0
c p weight -238 0.36676658 0
c p weight 239 0.57629116 0
c p weight -239 0.42370884 0
c p weight 240 0.42808923 0
c p weight -240 0.57191077 0
c p weight 241 0.65771017 0
c p weight -241 0.34228983 0
c p weight 242 0.42401689 0
c p weight -242 0.57598311 0
c p weight 243 0.76842117 0
c p weight -243 0.23157883 0
c p weight 244 0.56148761 0
c p weight -244 0.43851239 0
c p weight 245 0.39633510 0
c p weight -245 0.60366490 0
